AES/1_5_4/ssaes_r1-20_c5_rw1_e4_f0_k1-20_aes_canon_box_aes_mc_bidirectional/ExperimentMinisat_r9_k8cnf_2011-10-29-155309/Result
WARNING: for repeatability, setting FPU to use double precision
============================[ Problem Statistics ]=============================
|                                                                             |
|  Number of variables:          1716                                         |
|  Number of clauses:           10070                                         |
|  Parse time:                   0.01 s                                       |
|  Eliminated clauses:           0.02 Mb                                      |
|  Simplification time:          0.01 s                                       |
|                                                                             |
=============================[ Search Statistics ]==============================
| Conflicts  |          ORIGINAL         |          LEARNT          | Progress |
|            |    Vars  Clauses Literals |    Limit  Clauses Lit/Cl |          |
================================================================================
|        100 |    1386     9122    28298 |     3344      100     33 |  4.429 % |
|        250 |    1386     9122    28298 |     3679      250     44 |  4.429 % |
|        475 |    1386     9122    28298 |     4047      475     40 |  4.429 % |
|        812 |    1386     9122    28298 |     4451      812     44 |  4.429 % |
|       1318 |    1386     9122    28298 |     4897     1318     44 |  4.429 % |
|       2077 |    1386     9122    28298 |     5386     2077     45 |  4.429 % |
|       3216 |    1386     9122    28298 |     5925     3216     45 |  4.429 % |
|       4924 |    1386     9122    28298 |     6517     4924     43 |  4.429 % |
|       7486 |    1386     9122    28298 |     7169     4159     31 |  4.429 % |
|      11330 |    1386     9122    28298 |     7886     4338     28 |  4.429 % |
|      17096 |    1386     9122    28298 |     8675     6050     29 |  4.429 % |
|      25745 |    1386     9122    28298 |     9542     5895     29 |  4.429 % |
|      38719 |    1386     9122    28298 |    10497     9156     31 |  4.429 % |
|      58180 |    1386     9122    28298 |    11546     7205     24 |  4.429 % |
|      87372 |    1386     9122    28298 |    12701     7041     22 |  4.429 % |
|     131161 |    1386     9122    28298 |    13971    12144     24 |  4.429 % |
|     196845 |    1386     9122    28298 |    15368    14154     22 |  4.429 % |
|     295371 |    1386     9122    28298 |    16905    11570     20 |  4.429 % |
|     443160 |    1386     9122    28298 |    18596    14004     19 |  4.429 % |
|     664843 |    1386     9122    28298 |    20456    10171     19 |  4.429 % |
|     997368 |    1386     9122    28298 |    22501    12249     17 |  4.429 % |
|    1496156 |    1386     9122    28298 |    24751    11709     19 |  4.429 % |
|    2244338 |    1386     9122    28298 |    27227    23529     21 |  4.429 % |
|    3366612 |    1386     9122    28298 |    29949    21455     23 |  4.429 % |
|    5050023 |    1386     9122    28298 |    32944    28971     19 |  4.429 % |
===============================================================================
restarts              : 8495
conflicts             : 5446350        (12109 /sec)
decisions             : 6255644        (0.00 % random) (13909 /sec)
propagations          : 1409258140     (3133365 /sec)
conflict literals     : 132204411      (60.47 % deleted)
Memory used           : 21.00 MB
CPU time              : 449.759 s

SATISFIABLE
